524 525 493 492 491 490 529 528 526 523 522 521 520 518 519 497 496 470 469 468 467 466 465 464 463 462 461 460 459 458 457 456 455 454 438 437 436 435 434 433 432 430 431 429 428 427 426 424 423 422 421 420 419 417 418 410 411 412 356 355 354 353 352 413 414 416 415 351 350 349 348 347 362 363 361 359 358 357 360 401 402 403 400 399 398 397 407 408 406 405 404 409 385 384 383 425 382 386 387 388 389 390 392 391 393 394 395 396 371 372 370 369 368 367 365 364 346 345 344 343 342 366 329 328 327 326 325 324 323 322 373 374 375 376 377 378 379 380 381 445 444 443 439 442 446 447 448 449 450 441 440 453 452 499 500 501 498 502 503 517 516 515 514 527 512 513 511 510 509 508 507 506 504 505 308 309 310 311 451 312 313 314 315 316 317 321 320 319 318 305 306 304 307 303 302 301 300 299 298 297 296 295 294 293 292 291 330 331 332 340 341 339 338 337 336 333 335 334 283 284 285 286 287 280 281 282 279 278 288 289 290 277 276 275 274 273 272 271 269 270 268 267 266 265 264 263 262 258 259 261 260 257 256 255 253 254 252 251 250 249 248 241 242 243 244 245 247 246 238 239 240 237 236 235 234 233 232 224 222 219 218 220 221 223 217 216 215 214 213 212 211 210 209 205 206 207 208 203 204 202 198 199 200 201 165 164 166 167 163 168 162 161 112 113 131 132 133 134 158 159 156 155 160 154 153 157 145 144 143 142 146 147 148 152 149 150 151 141 140 139 136 135 137 138 129 130 128 127 126 125 124 69 70 68 67 66 65 71 72 73 74 75 76 64 63 61 60 59 81 58 57 82 83 56 55 53 54 52 50 51 84 85 86 90 87 80 79 62 78 77 88 89 94 95 96 97 98 99 100 102 101 551 550 559 558 552 553 554 93 92 91 49 48 47 43 44 45 46 555 556 557 40 41 42 39 38 37 36 35 34 33 32 30 29 28 31 22 23 12 13 14 15 16 11 10 9 18 17 8 7 6 5 4 3 2 1 0 573 572 571 570 569 568 19 20 21 24 25 26 27 567 566 565 563 562 561 560 564 549 548 545 546 547 544 543 541 542 107 103 104 105 106 118 119 120 121 122 123 117 116 115 114 111 110 109 108 173 174 175 172 170 171 169 180 181 179 178 177 176 540 539 537 538 187 188 186 182 183 185 184 197 196 195 194 193 192 191 190 226 225 189 227 228 229 230 231 531 530 489 532 533 488 534 536 535 487 486 485 484 483 482 481 480 479 478 477 476 475 474 473 472 471 495 494